min: c;

c = 2.79709974069074 * u1_t7_h4 + 3.651345248297 * u1_t7_h5 + 3.69000658662899 * u1_t5_h6 + 3.69000658662899 * u1_t7_h6 + 4.39126149261543 * u1_t5_h7 + 4.39126149261543 * u1_t7_h7 + 4.39126149261543 * u1_t9_h7 + 5.24557133014845 * u1_t5_h8 + 5.24557133014845 * u1_t7_h8 + 5.24557133014845 * u1_t9_h8 + 5.24557133014845 * u1_t10_h8 + 5.36612983498387 * u1_t5_h9 + 5.36612983498387 * u1_t7_h9 + 5.36612983498387 * u1_t9_h9 + 5.36612983498387 * u1_t10_h9 + 5.35544979938682 * u1_t5_h10 + 5.35544979938682 * u1_t7_h10 + 5.35544979938682 * u1_t9_h10 + 5.35544979938682 * u1_t10_h10 + 3.68051548172425 * u1_t5_h11 + 3.68051548172425 * u1_t9_h11 + 3.68051548172425 * u1_t10_h11 + 6.34871020633966 * u1_t4_h12 + 6.34871020633966 * u1_t5_h12 + 6.34871020633966 * u1_t8_h12 + 6.34871020633966 * u1_t9_h12 + 6.34871020633966 * u1_t10_h12 + 4.90248327356746 * u1_t4_h13 + 4.90248327356746 * u1_t8_h13 + 4.90248327356746 * u1_t9_h13 + 4.90248327356746 * u1_t10_h13 + 5.47496328048363 * u1_t4_h14 + 5.47496328048363 * u1_t8_h14 + 5.47496328048363 * u1_t9_h14 + 5.47496328048363 * u1_t10_h14 + 6.19391234782061 * u1_t4_h15 + 6.19391234782061 * u1_t8_h15 + 5.45664070269905 * u1_t4_h16 + 5.45664070269905 * u1_t8_h16 + 6.36839496430016 * u1_t4_h17 + 6.36839496430016 * u1_t8_h17 + 6.81412967091106 * u1_t2_h18 + 6.81412967091106 * u1_t4_h18 + 6.81412967091106 * u1_t6_h18 + 6.81412967091106 * u1_t8_h18 + 5.70205554164985 * u1_t2_h19 + 5.70205554164985 * u1_t3_h19 + 5.70205554164985 * u1_t4_h19 + 5.70205554164985 * u1_t6_h19 + 5.14639728704968 * u1_t1_h20 + 5.14639728704968 * u1_t2_h20 + 5.14639728704968 * u1_t3_h20 + 5.14639728704968 * u1_t4_h20 + 5.14639728704968 * u1_t6_h20 + 5.5626135953505 * u1_t1_h21 + 5.5626135953505 * u1_t2_h21 + 5.5626135953505 * u1_t3_h21 + 5.16326535520788 * u1_t1_h22 + 5.16326535520788 * u1_t2_h22 + 5.93120402290145 * u1_t1_h23 + 5.93120402290145 * u1_t2_h23;
0 <= u1_t1_h20 <= 1;
0 <= u1_t1_h21 <= 1;
0 <= u1_t1_h22 <= 1;
0 <= u1_t1_h23 <= 1;
u1_t1_h20 + u1_t1_h21 + u1_t1_h22 + u1_t1_h23 = 1;
0 <= u1_t2_h18 <= 1;
0 <= u1_t2_h19 <= 1;
0 <= u1_t2_h20 <= 1;
0 <= u1_t2_h21 <= 1;
0 <= u1_t2_h22 <= 1;
0 <= u1_t2_h23 <= 1;
u1_t2_h18 + u1_t2_h19 + u1_t2_h20 + u1_t2_h21 + u1_t2_h22 + u1_t2_h23 = 2;
0 <= u1_t3_h19 <= 1;
0 <= u1_t3_h20 <= 1;
0 <= u1_t3_h21 <= 1;
u1_t3_h19 + u1_t3_h20 + u1_t3_h21 = 1;
0 <= u1_t4_h12 <= 1;
0 <= u1_t4_h13 <= 1;
0 <= u1_t4_h14 <= 1;
0 <= u1_t4_h15 <= 1;
0 <= u1_t4_h16 <= 1;
0 <= u1_t4_h17 <= 1;
0 <= u1_t4_h18 <= 1;
0 <= u1_t4_h19 <= 1;
0 <= u1_t4_h20 <= 1;
u1_t4_h12 + u1_t4_h13 + u1_t4_h14 + u1_t4_h15 + u1_t4_h16 + u1_t4_h17 + u1_t4_h18 + u1_t4_h19 + u1_t4_h20 = 3;
0 <= u1_t5_h6 <= 1;
0 <= u1_t5_h7 <= 1;
0 <= u1_t5_h8 <= 1;
0 <= u1_t5_h9 <= 1;
0 <= u1_t5_h10 <= 1;
0 <= u1_t5_h11 <= 1;
0 <= u1_t5_h12 <= 1;
u1_t5_h6 + u1_t5_h7 + u1_t5_h8 + u1_t5_h9 + u1_t5_h10 + u1_t5_h11 + u1_t5_h12 = 3;
0 <= u1_t6_h18 <= 1;
0 <= u1_t6_h19 <= 1;
0 <= u1_t6_h20 <= 1;
u1_t6_h18 + u1_t6_h19 + u1_t6_h20 = 2;
0 <= u1_t7_h4 <= 1;
0 <= u1_t7_h5 <= 1;
0 <= u1_t7_h6 <= 1;
0 <= u1_t7_h7 <= 1;
0 <= u1_t7_h8 <= 1;
0 <= u1_t7_h9 <= 1;
0 <= u1_t7_h10 <= 1;
u1_t7_h4 + u1_t7_h5 + u1_t7_h6 + u1_t7_h7 + u1_t7_h8 + u1_t7_h9 + u1_t7_h10 = 2;
0 <= u1_t8_h12 <= 1;
0 <= u1_t8_h13 <= 1;
0 <= u1_t8_h14 <= 1;
0 <= u1_t8_h15 <= 1;
0 <= u1_t8_h16 <= 1;
0 <= u1_t8_h17 <= 1;
0 <= u1_t8_h18 <= 1;
u1_t8_h12 + u1_t8_h13 + u1_t8_h14 + u1_t8_h15 + u1_t8_h16 + u1_t8_h17 + u1_t8_h18 = 2;
0 <= u1_t9_h7 <= 1;
0 <= u1_t9_h8 <= 1;
0 <= u1_t9_h9 <= 1;
0 <= u1_t9_h10 <= 1;
0 <= u1_t9_h11 <= 1;
0 <= u1_t9_h12 <= 1;
0 <= u1_t9_h13 <= 1;
0 <= u1_t9_h14 <= 1;
u1_t9_h7 + u1_t9_h8 + u1_t9_h9 + u1_t9_h10 + u1_t9_h11 + u1_t9_h12 + u1_t9_h13 + u1_t9_h14 = 3;
0 <= u1_t10_h8 <= 1;
0 <= u1_t10_h9 <= 1;
0 <= u1_t10_h10 <= 1;
0 <= u1_t10_h11 <= 1;
0 <= u1_t10_h12 <= 1;
0 <= u1_t10_h13 <= 1;
0 <= u1_t10_h14 <= 1;
u1_t10_h8 + u1_t10_h9 + u1_t10_h10 + u1_t10_h11 + u1_t10_h12 + u1_t10_h13 + u1_t10_h14 = 3;
